NAME 
ROWS
 N  OBJ
 L  R0      
 L  R1      
 E  R2      
 E  R3      
 E  R4      
 E  R5      
 E  R6      
COLUMNS
    MARKER    'MARKER'                 'INTORG'
    I0(5)     OBJ       -117
    I0(5)     R0        -81
    I0(5)     R1        120
    I0(5)     R2        1
    I0(5)     R4        9
    I0(5)     R6        1
    I1(4)     OBJ       14
    I1(4)     R0        -32
    I1(4)     R1        -69
    I1(4)     R2        19
    I1(4)     R6        1
    I2(6)     OBJ       -155
    I2(6)     R0        -109
    I2(6)     R1        193
    I2(6)     R2        12
    I2(6)     R3        19
    I2(6)     R4        19
    I2(6)     R6        1
    MARKER    'MARKER'                 'INTEND'
    C3(6)     OBJ       -3
    C3(6)     R0        -2
    C3(6)     R1        -6
    C3(6)     R2        18
    C3(6)     R3        3
    C3(6)     R4        8
    C3(6)     R5        16
    C4(4)     R0        8
    C4(4)     R1        -2
    C4(4)     R4        3
    C4(4)     R5        11
    C5(1)     R2        1
    C6(1)     R3        1
    C7(1)     R4        1
    C8(1)     R5        1
    C9(1)     R6        1
RHS
    RHS1      R0        -1.1766666666666667e+02
    RHS1      R1        167
    RHS1      R2        90
    RHS1      R3        63
    RHS1      R4        94
    RHS1      R5        78
    RHS1      R6        1
BOUNDS
 UP BND1      I0(5)     1
 UP BND1      I1(4)     1
 UP BND1      I2(6)     1
ENDATA
